(declare-fun temp193_1 () (_ BitVec 64))
(declare-fun var136368 () (_ BitVec 64))
(declare-fun var136362 () (_ BitVec 64))
(declare-fun temp193_2 () (_ BitVec 64))
(declare-fun var70098 () (_ BitVec 64))
(declare-fun k!0 () Bool)
(declare-fun ARGNAME_params_NAMEEND_DIM () (_ BitVec 64))
(declare-fun temp193_3 () (_ BitVec 64))
(declare-fun extend_4033 () (_ BitVec 64))
(declare-fun var464123 () (_ BitVec 64))
(declare-fun var464119 () (_ BitVec 64))
(declare-fun var70135 () (_ BitVec 64))
(declare-fun temp193_4 () (_ BitVec 64))
(declare-fun temp193_5 () (_ BitVec 64))
(declare-fun var70215 () (_ BitVec 64))
(declare-fun temp193_6 () (_ BitVec 64))
(declare-fun ARGNAME_axis_NAMEEND () (_ BitVec 64))
(declare-fun var70217 () (_ BitVec 64))
(declare-fun temp193_7 () (_ BitVec 64))
(declare-fun var70219 () (_ BitVec 64))
(declare-fun temp193_8 () (_ BitVec 64))
(declare-fun temp193_9 () (_ BitVec 64))
(declare-fun var70355 () (_ BitVec 64))
(declare-fun temp193_10 () (_ BitVec 64))
(declare-fun ARGNAME_params_NAMEEND_DIMSIZE
             ()
             (Array (_ BitVec 64) (_ BitVec 64)))
(declare-fun temp193_11 () (_ BitVec 64))
(declare-fun temp193_12 () (_ BitVec 64))
(declare-fun temp193_13 () (_ BitVec 64))
(declare-fun temp193_14 () (_ BitVec 64))
(declare-fun temp193_15 () (_ BitVec 64))
(declare-fun temp193_16 () (_ BitVec 64))
(declare-fun temp193_17 () (_ BitVec 64))
(declare-fun temp193_18 () (_ BitVec 64))
(declare-fun temp193_19 () (_ BitVec 64))
(declare-fun temp193_20 () (_ BitVec 64))
(declare-fun temp193_21 () (_ BitVec 64))
(declare-fun temp193_22 () (_ BitVec 64))
(declare-fun var70357 () (_ BitVec 64))
(declare-fun temp193_23 () (_ BitVec 64))
(declare-fun ARGNAME_indices_NAMEEND_DIMSIZE
             ()
             (Array (_ BitVec 64) (_ BitVec 64)))
(declare-fun temp193_24 () (_ BitVec 64))
(declare-fun temp193_25 () (_ BitVec 64))
(declare-fun temp193_26 () (_ BitVec 64))
(declare-fun temp193_27 () (_ BitVec 64))
(declare-fun temp193_28 () (_ BitVec 64))
(declare-fun temp193_29 () (_ BitVec 64))
(declare-fun temp193_30 () (_ BitVec 64))
(declare-fun temp193_31 () (_ BitVec 64))
(declare-fun temp193_32 () (_ BitVec 64))
(declare-fun temp193_33 () (_ BitVec 64))
(declare-fun temp193_34 () (_ BitVec 64))
(declare-fun temp193_35 () (_ BitVec 64))
(declare-fun var70360 () (_ BitVec 64))
(declare-fun var70361 () (_ BitVec 64))
(declare-fun temp193_37 () (_ BitVec 64))
(declare-fun var70356 () (_ BitVec 64))
(declare-fun temp193_38 () (_ BitVec 64))
(declare-fun var792763 () (_ BitVec 64))
(declare-fun var70396 () (_ BitVec 64))
(declare-fun temp193_39 () (_ BitVec 64))
(declare-fun var70452 () (_ BitVec 64))
(declare-fun temp193_40 () (_ BitVec 64))
(declare-fun ARGNAME_indices_NAMEEND_NUMELEMENT () (_ BitVec 64))
(declare-fun var70553 () (_ BitVec 64))
(declare-fun var70610 () (_ BitVec 64))
(assert (= temp193_1 #x0000000000000000))
(assert (= var136368
   (ite (bvsgt ARGNAME_params_NAMEEND_DIM temp193_1)
        #x0000000000000001
        #x0000000000000000)))
(assert (= var136362 var136368))
(assert (= var70098 var136362))
(assert (= temp193_2 #x0000000000000001))
(assert (= var70098 temp193_2))
(assert (= temp193_3 #x0000000000000000))
(assert (= var464123
   (ite (= extend_4033 temp193_3)
        #x0000000000000001
        #x0000000000000000)))
(assert (= var464119 var464123))
(assert (= var70135 var464119))
(assert (= temp193_4 #x0000000000000001))
(assert (= var70135 temp193_4))
(assert (= temp193_5 #x0000000000000001))
(assert (= var70215 temp193_5))
(assert (= temp193_6 #x0000000000000000))
(assert (= var70217
   (ite (bvslt ARGNAME_axis_NAMEEND temp193_6)
        #x0000000000000001
        #x0000000000000000)))
(assert (= temp193_7 #x0000000000000001))
(assert (= var70219 (bvadd ARGNAME_axis_NAMEEND temp193_7)))
(assert (= temp193_8 #x0000000000000000))
(assert (= var70217 temp193_8))
(assert (= temp193_9 #x0000000000000000))
(assert (= var70355 temp193_9))
(assert (= temp193_10 #x0000000000000000))
(assert (= temp193_11 (select ARGNAME_params_NAMEEND_DIMSIZE temp193_10)))
(assert (= temp193_12 #x0000000000000001))
(assert (= temp193_13 (select ARGNAME_params_NAMEEND_DIMSIZE temp193_12)))
(assert (= temp193_14 #x0000000000000002))
(assert (= temp193_15 (select ARGNAME_params_NAMEEND_DIMSIZE temp193_14)))
(assert (= temp193_16 #x0000000000000003))
(assert (= temp193_17 (select ARGNAME_params_NAMEEND_DIMSIZE temp193_16)))
(assert (= temp193_18 #x0000000000000004))
(assert (= temp193_19 (select ARGNAME_params_NAMEEND_DIMSIZE temp193_18)))
(assert (= temp193_20 #x0000000000000005))
(assert (= temp193_21 (select ARGNAME_params_NAMEEND_DIMSIZE temp193_20)))
(assert (= temp193_22 (select ARGNAME_params_NAMEEND_DIMSIZE var70355)))
(assert (= var70357 temp193_22))
(assert (= temp193_23 #x0000000000000000))
(assert (= temp193_24 (select ARGNAME_indices_NAMEEND_DIMSIZE temp193_23)))
(assert (= temp193_25 #x0000000000000001))
(assert (= temp193_26 (select ARGNAME_indices_NAMEEND_DIMSIZE temp193_25)))
(assert (= temp193_27 #x0000000000000002))
(assert (= temp193_28 (select ARGNAME_indices_NAMEEND_DIMSIZE temp193_27)))
(assert (= temp193_29 #x0000000000000003))
(assert (= temp193_30 (select ARGNAME_indices_NAMEEND_DIMSIZE temp193_29)))
(assert (= temp193_31 #x0000000000000004))
(assert (= temp193_32 (select ARGNAME_indices_NAMEEND_DIMSIZE temp193_31)))
(assert (= temp193_33 #x0000000000000005))
(assert (= temp193_34 (select ARGNAME_indices_NAMEEND_DIMSIZE temp193_33)))
(assert (= temp193_35 (select ARGNAME_indices_NAMEEND_DIMSIZE var70355)))
(assert (= var70360 temp193_35))
(assert (= var70361 (ite (= var70357 var70360) #x0000000000000001 #x0000000000000000)))
(assert (= temp193_37 #x0000000000000001))
(assert (= var70356 (bvadd var70355 temp193_37)))
(assert (= temp193_38 #xffffffffffffffff))
(assert (= var792763 temp193_38))
(assert (= var70396 var792763))
(assert (= temp193_39 #x0000000000000001))
(assert (= var70452 temp193_39))
(assert (= temp193_40 #x0000000000000000))
(assert (= var70553
   (ite (= ARGNAME_indices_NAMEEND_NUMELEMENT temp193_40)
        #x0000000000000001
        #x0000000000000000)))
(assert (= var70610 (bvsdiv ARGNAME_indices_NAMEEND_NUMELEMENT var70452)))
(model-add temp193_1 () (_ BitVec 64) #x0000000000000000)
(model-add var136368 () (_ BitVec 64) #x0000000000000001)
(model-add var136362 () (_ BitVec 64) #x0000000000000001)
(model-add temp193_2 () (_ BitVec 64) #x0000000000000001)
(model-add var70098 () (_ BitVec 64) #x0000000000000001)
(model-del k!0)
(model-add ARGNAME_params_NAMEEND_DIM
           ()
           (_ BitVec 64)
           (ite (or k!0 (= #x0000000000000000 #x7fffffffffffffff))
                #x0000000000000000
                (bvadd #x0000000000000000 #x0000000000000001)))







